/*********************************************
 * OPL 12.7.1.0 Data
 * Author: La catedra
 * Creation Date: Mar 25, 2019 at 8:44:07 AM
 *********************************************/
/*PRODUCTOS:
1: Nescafe Dolca
2: Nescafe Clasico
3: Nescafe Gold Blend
... 
*/
PRODUCTOS = {1, 2, 3, 4, 5, 6, 7, 8, 9, 10, 11, 12, 13, 14, 15, 16, 17, 18, 19, 20}; 
DISPONIBILIDAD = [ 1, 1, 1, 1, 1, 1, 1, 1, 1, 1, 1, 1, 1, 1, 1, 1, 1, 1, 1, 1 ]; 
PRECIO_PROMO = [ 90, 105, 110, 155, 165, 175, 185, 195, 205, 215, 90, 105, 110, 155, 165, 175, 185, 195, 205, 216 ]; 
PRECIO_REGULAR = [ 100, 120, 150, 160, 170, 180, 190, 200, 210, 220, 100, 120, 150, 160, 170, 180, 190, 200, 210, 221 ]; 
PREFERENCIAS_PROMO = [ 2, 1, 3, 4, 5, 6, 7, 8, 9, 10, 12, 11, 13, 14, 15, 16, 17, 18, 19, 20 ]; 
PREFERENCIAS_REGULAR = [ 22, 21, 23, 24, 25, 26, 27, 28, 29, 30, 32, 31, 33, 34, 35, 36, 37, 38, 39, 40 ];

/*Output: Producto 20 a precio promo 216*/ 